NAME : portcgen-27-30
COMMENT : portcgen N=27, seed=30
TYPE : TSP
DIMENSION : 27
EDGE_WEIGHT_TYPE : EUC_2D
NODE_COORD_SECTION
1 229626 240419
2 -364144 -344568
3 88378 -310194
4 -57460 -426831
5 406238 350126
6 276904 -113330
7 -179754 133221
8 169560 30779
9 80713 -31752
10 -983 -321950
11 -12618 92916
12 -225168 558533
13 -69525 -133761
14 188826 146324
15 -38979 -217219
16 -308487 208863
17 -94583 -92225
18 -18932 234161
19 -95629 -22788
20 167381 -248707
21 -258923 50717
22 109044 2355
23 -308675 -6444
24 -54522 370468
25 226047 60540
26 125858 -159542
27 202843 -95908
